n_res = 3;
rc = [ 5, 9, 9 ];
n_tasks = 32;
d = [ 4, 6, 5, 3, 4, 6, 4, 3, 4, 2, 6, 4, 4, 5, 3, 3, 3, 4, 4, 5, 2, 6, 1, 2, 2, 2, 5, 4, 3, 2, 2, 1 ];
rr = [| 1, 5, 1, 2, 2, 5, 2, 2, 3, 2, 2, 2, 2, 4, 3, 1, 4, 3, 3, 4, 5, 3, 3, 2, 4, 2, 1, 1, 5, 2, 2, 5
      | 1, 1, 1, 3, 2, 3, 2, 3, 1, 2, 2, 2, 1, 2, 3, 2, 1, 1, 1, 2, 1, 1, 1, 1, 2, 3, 2, 2, 3, 1, 3, 2
      | 1, 1, 3, 2, 2, 3, 3, 3, 1, 1, 3, 1, 3, 2, 2, 2, 2, 3, 3, 3, 2, 3, 3, 1, 2, 2, 1, 3, 3, 2, 2, 3 |];
suc = [ { 19 },
       { 6 },
       {  },
       { 10 },
       {  },
       {  },
       { 24 },
       {  },
       { 29 },
       {  },
       { 30 },
       {  },
       { 20 },
       {  },
       { 31 },
       { 30 },
       { 22 },
       {  },
       {  },
       {  },
       {  },
       {  },
       {  },
       { 27 },
       {  },
       {  },
       {  },
       {  },
       {  },
       {  },
       {  },
       {  } ];
t_max = 114;
deadline = [| 34, 1, 0
 | 50, 4, 3
 | 34, 0, 1
 | 13, 4, 0
 | 13, 1, 3
 | 8, 2, 3
 | 38, 1, 0
 | 10, 1, 2
 | 34, 0, 4
 | 36, 0, 3
 | 15, 0, 3
 | 14, 4, 2
 | 30, 4, 0
 | 8, 3, 3
 | 36, 4, 3
 | 37, 0, 3
 | 14, 4, 3
 | 11, 4, 2
 | 53, 4, 3
 | 52, 1, 4
 | 35, 2, 1
 | 41, 1, 4
 | 21, 1, 3
 | 36, 2, 4
 | 31, 0, 0
 | 42, 1, 3
 | 22, 0, 4
 | 10, 3, 4
 | 17, 1, 0
 | 55, 1, 2
 | 47, 4, 2
 | 13, 0, 1 |];
